SLURM_JOB_ID: 55348063
SLURM_JOB_USER: vsc34888
SLURM_JOB_ACCOUNT: lp_elect_gen_modeling
SLURM_JOB_NAME: RTS24_mod1_full_MILP_DC
SLURM_CLUSTER_NAME: genius
SLURM_JOB_PARTITION: batch
SLURM_NNODES: 1
SLURM_NODELIST: r22i27n06
SLURM_JOB_CPUS_PER_NODE: 36
Date: Mon Nov 13 16:30:03 CET 2023
Walltime: 03-00:00:00
========================================================================
Activation OK
Starting runs

 #### Academic research license - for non-commercial use only #### 

RTS24_mod1
/lustre1/scratch/348/vsc34888/JointResearch/05.Models/06.Benchmarking/A.The_full_year_MILP
gurobi
['oSN_Main_DCOPF.py', '--case', 'RTS24_mod1']
Namespace(case='RTS24_mod1', dir='/lustre1/scratch/348/vsc34888/JointResearch/05.Models/06.Benchmarking/A.The_full_year_MILP', solver='gurobi')
Namespace(case='RTS24_mod1', dir='/lustre1/scratch/348/vsc34888/JointResearch/05.Models/06.Benchmarking/A.The_full_year_MILP', solver='gurobi')
Reading    input data                 ...  0 s
Setting up input data                 ...  11 s
Generating objective function         ...  11 s
Generating operation & investment     ...  0 s
Generating balance                    ...  24 s
Generating storage operation          ...  0 s
Generating generation commitment      ...  16 s
Generating generation capacity        ...  3 s
Generating network    capacity        ...  13 s
Generating network    constraints     ...  33 s
Econometric analysis  constraints     ...  0 s
Set parameter Username
Set parameter TokenServer to value "SET-S-ME-LM3.luna.kuleuven.be"
Read LP format model from file /tmp/tmp1fg5_r8l.pyomo.lp
Reading time = 8.07 seconds
x1: 3031395 rows, 2016289 columns, 7883383 nonzeros
Set parameter QCPDual to value 1
Set parameter LogFile to value "/lustre1/scratch/348/vsc34888/JointResearch/05.Models/06.Benchmarking/A.The_full_year_MILP/RTS24_mod1/openStarNet_RTS24_mod1.log"
Set parameter Method to value 2
Set parameter MIPFocus to value 1
Set parameter Presolve to value 2
Set parameter RINS to value 100
Set parameter MIPGap to value 0.01
Set parameter Threads to value 36
Set parameter TimeLimit to value 259200
Set parameter IterationLimit to value 760000000
Gurobi Optimizer version 9.5.0 build v9.5.0rc5 (linux64)
Thread count: 36 physical cores, 36 logical processors, using up to 36 threads
Optimize a model with 3031395 rows, 2016289 columns and 7883383 nonzeros
Model fingerprint: 0x4924fe52
Variable types: 2016273 continuous, 16 integer (16 binary)
Coefficient statistics:
  Matrix range     [2e-04, 3e+02]
  Objective range  [1e+00, 1e+00]
  Bounds range     [4e-05, 3e+00]
  RHS range        [4e-05, 3e+00]
Presolve removed 1782149 rows and 786309 columns (presolve time = 5s) ...
Presolve removed 1782149 rows and 786309 columns (presolve time = 10s) ...
Presolve removed 1869509 rows and 961029 columns (presolve time = 15s) ...
Presolve removed 1869509 rows and 961029 columns
Presolve time: 16.71s
Presolved: 1161886 rows, 1055260 columns, 4090811 nonzeros
Variable types: 1055244 continuous, 16 integer (16 binary)
Root relaxation presolved: 1161886 rows, 1055260 columns, 4090811 nonzeros

Root barrier log...

Ordering time: 0.38s

Barrier statistics:
 Dense cols : 16
 AA' NZ     : 6.499e+06
 Factor NZ  : 2.180e+07 (roughly 1.0 GB of memory)
 Factor Ops : 4.649e+08 (less than 1 second per iteration)
 Threads    : 35

                  Objective                Residual
Iter       Primal          Dual         Primal    Dual     Compl     Time
   0   8.45662510e+05 -5.78016730e+07  7.01e+00 7.03e-01  5.20e+01    28s
   1   1.01309782e+05 -1.31762875e+07  6.62e-01 3.21e-08  6.53e+00    29s
   2   5.50293013e+04 -2.45399044e+06  2.42e-01 8.61e-09  1.15e+00    30s
   3   2.47157384e+04 -4.11669110e+05  1.53e-02 2.07e-09  1.61e-01    30s
   4   1.08830193e+04 -1.09477872e+05  3.56e-03 4.99e-10  4.34e-02    31s
   5   4.01758558e+03 -2.39571367e+04  1.14e-03 1.07e-10  1.00e-02    32s
   6   1.26345126e+03 -4.63982901e+03  2.61e-04 2.11e-11  2.12e-03    32s
   7   3.89040498e+02 -1.45194179e+03  1.58e-05 6.20e-12  6.59e-04    33s
   8   2.90883813e+02 -7.31016987e+02  8.66e-06 3.80e-12  3.66e-04    33s
   9   2.36755071e+02 -3.74109387e+02  5.82e-06 2.57e-12  2.19e-04    34s
  10   1.87728622e+02 -1.12563381e+02  3.38e-06 6.82e-13  1.08e-04    34s
  11   1.57844751e+02 -2.69121125e+01  2.05e-06 4.87e-13  6.62e-05    35s
  12   1.35350628e+02  3.38566020e+01  1.12e-06 2.01e-13  3.64e-05    35s
  13   1.22709329e+02  6.72843404e+01  6.01e-07 4.94e-13  1.99e-05    36s
  14   1.17086635e+02  8.75981649e+01  3.81e-07 1.60e-13  1.06e-05    37s
  15   1.14806006e+02  9.18086734e+01  2.94e-07 2.77e-13  8.24e-06    37s
  16   1.13222776e+02  9.36934001e+01  2.33e-07 3.69e-13  6.99e-06    38s
  17   1.11541957e+02  9.66639160e+01  1.68e-07 9.95e-14  5.33e-06    38s
  18   1.10427845e+02  1.00468913e+02  1.25e-07 2.34e-13  3.57e-06    39s
  19   1.09414476e+02  1.02854975e+02  8.80e-08 2.49e-13  2.35e-06    40s
  20   1.08682967e+02  1.03972496e+02  6.05e-08 3.77e-13  1.69e-06    41s
  21   1.08350892e+02  1.04812037e+02  4.72e-08 7.99e-14  1.27e-06    42s
  22   1.07937410e+02  1.05333027e+02  3.13e-08 3.91e-13  9.33e-07    43s
  23   1.07761016e+02  1.05845876e+02  2.45e-08 1.51e-14  6.86e-07    44s
  24   1.07642488e+02  1.06176221e+02  1.98e-08 4.19e-13  5.25e-07    45s
  25   1.07558240e+02  1.06263115e+02  1.65e-08 1.28e-13  4.64e-07    46s
  26   1.07490645e+02  1.06421716e+02  1.38e-08 2.13e-13  3.83e-07    47s
  27   1.07417614e+02  1.06525101e+02  1.08e-08 2.45e-13  3.20e-07    48s
  28   1.07353795e+02  1.06643993e+02  8.25e-09 1.21e-13  2.54e-07    49s
  29   1.07321211e+02  1.06748637e+02  7.01e-09 9.95e-14  2.05e-07    51s
  30   1.07279725e+02  1.06786358e+02  5.31e-09 1.42e-13  1.77e-07    52s
  31   1.07247387e+02  1.06834534e+02  3.98e-09 1.35e-13  1.48e-07    53s
  32   1.07229405e+02  1.06871393e+02  3.28e-09 9.95e-14  1.28e-07    54s
  33   1.07217858e+02  1.06926359e+02  2.81e-09 4.62e-14  1.04e-07    55s
  34   1.07204838e+02  1.06971447e+02  2.27e-09 3.62e-13  8.36e-08    56s
  35   1.07193531e+02  1.06992116e+02  1.81e-09 2.20e-13  7.21e-08    57s
  36   1.07184007e+02  1.07021840e+02  1.43e-09 3.27e-13  5.81e-08    58s
  37   1.07179930e+02  1.07041060e+02  1.26e-09 9.59e-14  4.97e-08    59s
  38   1.07175103e+02  1.07055078e+02  1.07e-09 7.82e-14  4.30e-08    60s
  39   1.07166935e+02  1.07062555e+02  7.37e-10 3.91e-14  3.74e-08    61s
  40   1.07164821e+02  1.07085339e+02  7.39e-10 5.68e-14  2.85e-08    62s
  41   1.07163152e+02  1.07091373e+02  6.63e-10 2.13e-13  2.57e-08    64s
  42   1.07161173e+02  1.07101787e+02  5.31e-10 6.57e-14  2.13e-08    65s
  43   1.07159304e+02  1.07105252e+02  4.54e-10 2.31e-13  1.94e-08    67s
  44   1.07157946e+02  1.07110539e+02  3.99e-10 4.00e-14  1.70e-08    68s
  45   1.07156095e+02  1.07116116e+02  3.25e-10 1.21e-13  1.43e-08    70s
  46   1.07155297e+02  1.07118304e+02  2.93e-10 2.06e-13  1.33e-08    71s
  47   1.07154549e+02  1.07122944e+02  2.62e-10 1.99e-13  1.13e-08    73s
  48   1.07153797e+02  1.07124928e+02  2.32e-10 3.77e-13  1.03e-08    74s
  49   1.07152834e+02  1.07126347e+02  1.94e-10 3.41e-13  9.49e-09    75s
  50   1.07151910e+02  1.07128664e+02  1.57e-10 2.13e-14  8.33e-09    77s
  51   1.07151119e+02  1.07130814e+02  1.99e-10 2.06e-13  7.27e-09    78s
  52   1.07150972e+02  1.07131107e+02  1.90e-10 1.39e-13  7.12e-09    79s
  53   1.07150803e+02  1.07134522e+02  1.79e-10 2.43e-13  5.83e-09    80s
  54   1.07150577e+02  1.07135913e+02  1.64e-10 4.26e-13  5.25e-09    82s
  55   1.07150114e+02  1.07136835e+02  1.35e-10 3.55e-13  4.76e-09    83s
  56   1.07149925e+02  1.07138222e+02  1.23e-10 3.08e-13  4.19e-09    85s
  57   1.07149369e+02  1.07139125e+02  8.69e-11 2.82e-13  3.67e-09    86s
  58   1.07149119e+02  1.07139970e+02  7.07e-11 2.55e-13  3.28e-09    87s
  59   1.07149068e+02  1.07140350e+02  6.76e-11 3.06e-13  3.12e-09    89s
  60   1.07148830e+02  1.07141499e+02  5.30e-11 2.70e-13  2.63e-09    90s
  61   1.07148657e+02  1.07141897e+02  4.22e-11 1.94e-13  2.42e-09    92s
  62   1.07148579e+02  1.07142742e+02  3.74e-11 1.66e-13  2.09e-09    93s
  63   1.07148431e+02  1.07142936e+02  2.97e-11 1.60e-13  1.97e-09    95s
  64   1.07148376e+02  1.07143194e+02  2.67e-11 2.20e-13  1.86e-09    96s
  65   1.07148277e+02  1.07143806e+02  9.67e-11 1.21e-13  1.60e-09    97s
  66   1.07148232e+02  1.07144300e+02  8.21e-11 3.20e-13  1.41e-09    99s
  67   1.07148219e+02  1.07144501e+02  7.80e-11 3.55e-14  1.33e-09   100s
  68   1.07148179e+02  1.07144841e+02  6.58e-11 1.71e-13  1.20e-09   102s
  69   1.07148147e+02  1.07145091e+02  5.60e-11 8.53e-14  1.09e-09   103s
  70   1.07148141e+02  1.07145659e+02  5.43e-11 2.84e-14  8.89e-10   104s
  71   1.07148123e+02  1.07145821e+02  4.90e-11 1.35e-13  8.25e-10   106s
  72   1.07148092e+02  1.07146403e+02  4.04e-11 4.97e-14  6.05e-10   107s
  73   1.07148092e+02  1.07146681e+02  3.93e-11 3.27e-13  5.05e-10   109s
  74   1.07148049e+02  1.07147031e+02  2.73e-11 2.91e-13  3.64e-10   110s
  75   1.07148021e+02  1.07147326e+02  1.21e-10 7.82e-14  2.49e-10   111s
  76   1.07148018e+02  1.07147362e+02  2.12e-09 1.53e-13  2.35e-10   112s
  77   1.07147997e+02  1.07147436e+02  2.43e-08 7.19e-12  2.01e-10   114s
  78   1.07147991e+02  1.07147592e+02  2.16e-08 5.42e-12  1.43e-10   115s
  79   1.07147988e+02  1.07147632e+02  2.11e-08 1.36e-10  1.28e-10   117s
  80   1.07147983e+02  1.07147737e+02  1.87e-08 9.05e-11  8.81e-11   119s
  81   1.07147978e+02  1.07147750e+02  2.23e-08 6.12e-11  8.16e-11   121s
  82   1.07147973e+02  1.07147779e+02  3.77e-08 9.22e-11  6.97e-11   122s
  83   1.07147970e+02  1.07147788e+02  3.18e-08 7.93e-11  6.49e-11   123s
  84   1.07147968e+02  1.07147860e+02  2.87e-08 3.68e-11  3.85e-11   125s
  85   1.07147963e+02  1.07147883e+02  7.16e-08 2.75e-11  2.84e-11   127s

Barrier solved model in 85 iterations and 126.53 seconds (100.09 work units)
Optimal objective 1.07148021e+02


Root crossover log...

  115810 DPushes remaining with DInf 0.0000000e+00               131s
     724 DPushes remaining with DInf 0.0000000e+00               137s
     187 DPushes remaining with DInf 0.0000000e+00               142s
       0 DPushes remaining with DInf 0.0000000e+00               145s

  153733 PPushes remaining with PInf 2.0674836e-06               146s
   80792 PPushes remaining with PInf 2.8009884e-04               154s
   66444 PPushes remaining with PInf 2.8009884e-04               159s
   56626 PPushes remaining with PInf 2.8006752e-04               166s
   46794 PPushes remaining with PInf 2.8006752e-04               173s
   38415 PPushes remaining with PInf 2.8006752e-04               177s
   30086 PPushes remaining with PInf 2.8006752e-04               184s
   21357 PPushes remaining with PInf 2.8006752e-04               196s
   12903 PPushes remaining with PInf 2.8006752e-04               209s
    6134 PPushes remaining with PInf 2.8006752e-04               222s
    2457 PPushes remaining with PInf 2.8006752e-04               234s
    1188 PPushes remaining with PInf 2.8006752e-04               246s
     528 PPushes remaining with PInf 2.8006752e-04               255s
       0 PPushes remaining with PInf 2.6140985e-04               259s

  Push phase complete: Pinf 2.6140985e-04, Dinf 7.0735853e-01    259s


Root simplex log...

Iteration    Objective       Primal Inf.    Dual Inf.      Time
  156532    1.0714796e+02   0.000000e+00   7.073585e-01    263s
  156735    1.0714795e+02   1.009976e-04   0.000000e+00    275s
  156736    1.0714795e+02   0.000000e+00   0.000000e+00    277s
  156736    1.0714795e+02   0.000000e+00   0.000000e+00    282s

Root relaxation: objective 1.071480e+02, 156736 iterations, 260.51 seconds (228.59 work units)
Total elapsed time = 355.59s

    Nodes    |    Current Node    |     Objective Bounds      |     Work
 Expl Unexpl |  Obj  Depth IntInf | Incumbent    BestBd   Gap | It/Node Time

     0     0  107.14795    0   15          -  107.14795      -     -  365s
     0     0  108.87642    0   14          -  108.87642      -     - 2849s
H    0     0                     133.7094065  108.87642  18.6%     - 3139s
     0     0  109.35738    0   11  133.70941  109.35738  18.2%     - 4458s
     0     0  109.35862    0   11  133.70941  109.35862  18.2%     - 4534s
     0     0  109.35863    0   11  133.70941  109.35863  18.2%     - 4552s
     0     0  110.35885    0    9  133.70941  110.35885  17.5%     - 5745s
H    0     0                     132.2339888  110.35885  16.5%     - 6034s
     0     0  110.37676    0    9  132.23399  110.37676  16.5%     - 6189s
     0     0  110.37743    0    9  132.23399  110.37743  16.5%     - 6239s
     0     0  110.37747    0    9  132.23399  110.37747  16.5%     - 6259s
     0     0  110.77334    0    9  132.23399  110.77334  16.2%     - 6807s
     0     0  110.77974    0    9  132.23399  110.77974  16.2%     - 6910s
     0     0  110.78002    0    9  132.23399  110.78002  16.2%     - 6942s
     0     0  111.11597    0    9  132.23399  111.11597  16.0%     - 7484s
     0     0  111.13033    0    9  132.23399  111.13033  16.0%     - 7573s
     0     0  111.13064    0    9  132.23399  111.13064  16.0%     - 7601s
     0     0  111.27910    0    9  132.23399  111.27910  15.8%     - 9237s
H    0     0                     121.1295222  111.27910  8.13%     - 25972s
     0     2  111.27910    0    9  121.12952  111.27910  8.13%     - 25994s
     1     4  112.10731    1   11  121.12952  111.27936  8.13% 72668 27221s
     3     8  118.40177    2   11  121.12952  112.10917  7.45% 69456 28827s
     7    10     cutoff    3       121.12952  113.64441  6.18% 60990 29660s
    15    12  120.51714    4   11  121.12952  113.75451  6.09% 56597 34940s
    25    14     cutoff    5       121.12952  114.71950  5.29% 62346 38872s
    37    12  118.13611    6    9  121.12952  117.45116  3.04% 54713 41836s
    51    10  120.11668    7    8  121.12952  118.13627  2.47% 56242 42883s
    63     2     cutoff    8       121.12952  118.20289  2.42% 50569 43846s

Cutting planes:
  Gomory: 2
  Implied bound: 574
  MIR: 68193
  RLT: 17
  Relax-and-lift: 925

Explored 73 nodes (3951835 simplex iterations) in 43846.63 seconds (87796.67 work units)
Thread count was 36 (of 36 available processors)

Solution count 3: 121.13 132.234 133.709 

Optimal solution found (tolerance 1.00e-02)
Best objective 1.211295222264e+02, best bound 1.206614311934e+02, gap 0.3864%
Termination condition:  optimal
# ==========================================================
# = Solver Results                                         =
# ==========================================================
# ----------------------------------------------------------
#   Problem Information
# ----------------------------------------------------------
Problem: 
- Name: x1
  Lower bound: 120.66143119342662
  Upper bound: 121.12952222638076
  Number of objectives: 1
  Number of constraints: 3031395
  Number of variables: 2016289
  Number of binary variables: 16
  Number of integer variables: 16
  Number of continuous variables: 2016273
  Number of nonzeros: 7883383
  Sense: minimize
# ----------------------------------------------------------
#   Solver Information
# ----------------------------------------------------------
Solver: 
- Status: ok
  Return code: 0
  Message: Model was solved to optimality (subject to tolerances), and an optimal solution is available.
  Termination condition: optimal
  Termination message: Model was solved to optimality (subject to tolerances), and an optimal solution is available.
  Wall time: 43846.668661117554
  Error rc: 0
  Time: 43865.75281500816
# ----------------------------------------------------------
#   Solution Information
# ----------------------------------------------------------
Solution: 
- number of solutions: 0
  number of solutions displayed: 0
# ============================================================================= #
# ============================================================================= #
fixing: vNetworkInvest[2030,N_109,N_112,cac1]
fixing: vNetworkInvest[2030,N_114,N_116,cac1]
fixing: vNetworkInvest[2030,N_115,N_121,cac2]
fixing: vNetworkInvest[2030,N_106,N_108,cac1]
fixing: vNetworkInvest[2030,N_115,N_124,cac1]
fixing: vNetworkInvest[2030,N_107,N_108,cac1]
fixing: vNetworkInvest[2030,N_110,N_111,cac1]
fixing: vNetworkInvest[2030,N_115,N_121,cac1]
fixing: vNetworkInvest[2030,N_115,N_116,cac1]
fixing: vNetworkInvest[2030,N_118,N_121,cac2]
fixing: vNetworkInvest[2030,N_103,N_124,cac1]
fixing: vNetworkInvest[2030,N_108,N_110,cac1]
fixing: vNetworkInvest[2030,N_117,N_118,cac1]
fixing: vNetworkInvest[2030,N_109,N_111,cac1]
fixing: vNetworkInvest[2030,N_116,N_117,cac1]
fixing: vNetworkInvest[2030,N_118,N_121,cac1]
Number of fixed variables:  16
# ============================================================================= #
# ============================================================================= #
WARNING: Implicitly replacing the Component attribute dual (type=<class
'pyomo.core.base.suffix.Suffix'>) on block 'openStarNet - Open Version of the
StartNetLite Model (Long Term Transmission Expansion Planning) - Version 1.0.0
- January 16, 2023' with a new Component (type=<class
'pyomo.core.base.suffix.Suffix'>). This is usually indicative of a modelling
error. To avoid this warning, use block.del_component() and
block.add_component().
WARNING: Implicitly replacing the Component attribute rc (type=<class
'pyomo.core.base.suffix.Suffix'>) on block 'openStarNet - Open Version of the
StartNetLite Model (Long Term Transmission Expansion Planning) - Version 1.0.0
- January 16, 2023' with a new Component (type=<class
'pyomo.core.base.suffix.Suffix'>). This is usually indicative of a modelling
error. To avoid this warning, use block.del_component() and
block.add_component().
# ==========================================================
# = Solver Results                                         =
# ==========================================================
# ----------------------------------------------------------
#   Problem Information
# ----------------------------------------------------------
Problem: 
- Name: x1
  Lower bound: 121.12952222638113
  Upper bound: 121.12952222638113
  Number of objectives: 1
  Number of constraints: 3031395
  Number of variables: 2016273
  Number of binary variables: 0
  Number of integer variables: 0
  Number of continuous variables: 2016273
  Number of nonzeros: 7324263
  Sense: minimize
# ----------------------------------------------------------
#   Solver Information
# ----------------------------------------------------------
Solver: 
- Status: ok
  Return code: 0
  Message: Model was solved to optimality (subject to tolerances), and an optimal solution is available.
  Termination condition: optimal
  Termination message: Model was solved to optimality (subject to tolerances), and an optimal solution is available.
  Wall time: 112.15531802177429
  Error rc: 0
  Time: 141.1335563659668
# ----------------------------------------------------------
#   Solution Information
# ----------------------------------------------------------
Solution: 
- number of solutions: 0
  number of solutions displayed: 0
Solving                               ...  44170 s
Objective function value                   121.13 M€
Objective function value                   121.12952222638113
Writing         cost summary results  ...  0 s
Writing           investment results  ...  0 s
Writing       energy balance results  ...  100 s
Writing    network operation results  ...  5 s
Writing generation operation results  ...  12 s
Writing        ESS operation results  ...  0 s
Writing             economic results  ...  1 s

 #### Academic research license - for non-commercial use only #### 

Elapsed time: 44444 seconds
